NAME : X-n856-k95
COMMENT : "Generated by Uchoa, Pecin, Pessoa, Poggi, Subramanian, and Vidal (2013)"
TYPE : CVRP
DIMENSION : 856
EDGE_WEIGHT_TYPE : EUC_2D
CAPACITY : 9
NODE_COORD_SECTION
1 500 500
2 440 732
3 221 348
4 117 545
5 493 645
6 135 12
7 775 997
8 745 444
9 950 311
10 530 150
11 900 508
12 48 519
13 269 217
14 722 349
15 480 733
16 977 422
17 999 220
18 636 332
19 851 162
20 559 567
21 389 69
22 529 835
23 303 427
24 400 638
25 894 904
26 482 109
27 579 800
28 184 82
29 669 753
30 906 424
31 374 692
32 174 613
33 75 37
34 38 563
35 838 157
36 710 709
37 176 67
38 449 326
39 71 389
40 710 115
41 237 547
42 530 27
43 631 223
44 171 342
45 226 65
46 6 998
47 24 635
48 668 165
49 318 608
50 429 82
51 212 237
52 853 126
53 387 47
54 677 144
55 111 790
56 957 32
57 511 647
58 457 561
59 86 687
60 290 456
61 473 563
62 807 725
63 461 468
64 739 235
65 257 340
66 588 545
67 6 311
68 268 976
69 552 414
70 994 946
71 452 534
72 422 545
73 248 611
74 43 366
75 977 96
76 822 580
77 940 650
78 86 263
79 715 99
80 668 981
81 424 638
82 297 607
83 251 282
84 237 413
85 202 573
86 181 385
87 126 528
88 386 811
89 978 846
90 70 99
91 333 357
92 49 870
93 157 734
94 627 268
95 818 433
96 738 555
97 350 909
98 337 926
99 978 59
100 42 595
101 870 933
102 19 120
103 165 679
104 131 984
105 232 755
106 319 417
107 187 376
108 251 482
109 657 219
110 209 397
111 800 377
112 228 116
113 566 559
114 490 156
115 216 547
116 964 677
117 85 897
118 292 807
119 600 893
120 938 222
121 543 747
122 572 976
123 569 59
124 712 574
125 971 515
126 616 306
127 695 837
128 421 821
129 604 995
130 537 957
131 1000 653
132 282 817
133 380 874
134 778 101
135 462 74
136 87 682
137 441 228
138 608 430
139 511 313
140 710 300
141 630 24
142 626 650
143 531 719
144 598 824
145 995 622
146 258 981
147 358 281
148 279 169
149 286 268
150 259 659
151 782 132
152 862 518
153 457 603
154 210 438
155 44 44
156 527 818
157 164 156
158 23 86
159 342 930
160 39 282
161 269 848
162 436 886
163 323 340
164 237 891
165 333 488
166 517 137
167 591 972
168 541 888
169 122 280
170 159 655
171 200 158
172 446 283
173 107 315
174 588 270
175 158 374
176 26 353
177 959 76
178 852 328
179 927 736
180 437 138
181 53 938
182 333 192
183 922 499
184 407 948
185 970 664
186 237 738
187 8 561
188 747 852
189 989 908
190 100 860
191 10 960
192 842 190
193 595 716
194 286 965
195 199 373
196 159 67
197 979 25
198 488 479
199 804 620
200 742 853
201 528 160
202 223 342
203 503 159
204 711 681
205 339 340
206 342 509
207 931 593
208 766 953
209 710 172
210 521 451
211 172 159
212 685 836
213 639 155
214 763 656
215 269 241
216 825 761
217 330 177
218 901 124
219 713 860
220 619 926
221 692 19
222 96 876
223 949 178
224 79 795
225 833 852
226 336 444
227 877 0
228 296 597
229 566 735
230 940 377
231 349 269
232 939 827
233 908 120
234 50 741
235 670 569
236 753 744
237 577 351
238 141 616
239 97 625
240 64 875
241 496 160
242 515 598
243 344 803
244 274 510
245 291 170
246 800 300
247 74 609
248 365 207
249 791 396
250 453 848
251 405 191
252 395 290
253 525 743
254 260 385
255 408 837
256 1 346
257 231 504
258 837 572
259 606 473
260 900 729
261 346 868
262 123 80
263 477 169
264 383 59
265 510 410
266 890 101
267 952 635
268 825 722
269 68 598
270 234 841
271 911 720
272 172 367
273 569 289
274 84 19
275 694 916
276 454 412
277 261 233
278 693 375
279 588 854
280 276 538
281 599 569
282 142 158
283 338 805
284 324 194
285 739 325
286 845 639
287 638 182
288 858 93
289 40 923
290 37 599
291 638 39
292 218 714
293 568 674
294 288 840
295 439 570
296 325 801
297 587 278
298 992 674
299 597 608
300 174 865
301 65 330
302 872 434
303 620 129
304 339 681
305 178 811
306 478 966
307 469 749
308 475 791
309 799 594
310 692 130
311 59 223
312 811 2
313 5 946
314 219 305
315 759 951
316 656 889
317 582 18
318 97 885
319 888 467
320 899 286
321 512 358
322 188 776
323 220 951
324 503 801
325 483 402
326 685 904
327 483 722
328 13 301
329 387 976
330 607 709
331 857 739
332 51 422
333 818 797
334 302 646
335 474 101
336 817 66
337 573 973
338 948 686
339 922 552
340 586 899
341 153 503
342 47 817
343 740 970
344 216 852
345 261 776
346 935 540
347 920 879
348 642 623
349 305 71
350 268 373
351 409 940
352 374 176
353 894 60
354 539 352
355 605 457
356 4 240
357 340 303
358 563 524
359 861 875
360 700 810
361 160 753
362 985 455
363 981 276
364 708 646
365 575 249
366 777 725
367 724 888
368 853 773
369 4 27
370 743 430
371 301 574
372 38 983
373 575 209
374 10 683
375 878 342
376 745 333
377 616 311
378 537 110
379 70 839
380 531 647
381 157 736
382 609 356
383 450 852
384 534 11
385 436 279
386 340 578
387 41 809
388 971 282
389 389 628
390 171 951
391 821 278
392 633 578
393 158 858
394 374 163
395 219 471
396 392 784
397 586 937
398 546 923
399 619 737
400 700 50
401 722 223
402 112 450
403 857 66
404 81 295
405 314 964
406 829 981
407 723 590
408 645 700
409 318 800
410 277 268
411 459 81
412 573 211
413 391 259
414 368 81
415 262 451
416 629 44
417 390 264
418 842 703
419 780 254
420 653 177
421 882 625
422 763 432
423 615 183
424 62 855
425 629 543
426 27 83
427 822 574
428 355 86
429 102 110
430 859 489
431 410 900
432 519 683
433 111 12
434 957 366
435 848 474
436 265 184
437 985 701
438 862 488
439 215 888
440 945 515
441 76 204
442 553 988
443 22 32
444 817 463
445 938 553
446 441 911
447 944 473
448 120 85
449 139 101
450 551 214
451 422 750
452 373 976
453 196 122
454 312 75
455 870 353
456 25 46
457 470 958
458 184 140
459 890 462
460 841 551
461 843 479
462 82 88
463 979 491
464 898 582
465 439 811
466 8 173
467 199 182
468 239 151
469 960 334
470 67 99
471 49 100
472 253 120
473 124 84
474 64 183
475 453 987
476 490 869
477 153 111
478 421 756
479 862 440
480 170 166
481 887 544
482 854 544
483 58 109
484 135 102
485 408 787
486 44 101
487 859 469
488 865 487
489 845 522
490 350 875
491 24 154
492 945 452
493 732 438
494 322 797
495 569 889
496 853 466
497 286 3
498 19 558
499 44 168
500 482 967
501 271 127
502 425 909
503 405 777
504 921 499
505 513 901
506 811 488
507 541 920
508 41 240
509 876 405
510 449 871
511 786 558
512 467 684
513 75 150
514 827 446
515 625 441
516 122 117
517 321 913
518 935 443
519 378 902
520 95 48
521 939 576
522 991 561
523 887 479
524 108 102
525 822 451
526 137 252
527 788 543
528 556 988
529 769 375
530 445 848
531 446 965
532 925 421
533 674 544
534 117 30
535 388 987
536 119 18
537 439 962
538 134 297
539 614 521
540 887 325
541 467 903
542 772 461
543 423 944
544 379 846
545 916 509
546 983 447
547 667 885
548 96 150
549 465 911
550 96 17
551 425 963
552 93 201
553 132 93
554 671 926
555 901 468
556 93 287
557 795 581
558 741 514
559 119 223
560 503 964
561 849 388
562 80 58
563 116 81
564 123 266
565 683 363
566 77 114
567 872 520
568 187 62
569 83 158
570 918 677
571 19 198
572 909 427
573 937 395
574 11 176
575 80 88
576 72 143
577 510 919
578 25 87
579 421 825
580 855 443
581 823 522
582 468 802
583 2 112
584 96 91
585 647 389
586 876 475
587 422 970
588 705 454
589 151 897
590 853 420
591 883 484
592 27 44
593 852 479
594 154 38
595 285 921
596 50 196
597 956 449
598 259 863
599 702 637
600 422 975
601 413 885
602 432 847
603 112 263
604 908 625
605 783 344
606 422 744
607 372 987
608 860 387
609 168 96
610 358 850
611 476 813
612 62 117
613 539 970
614 278 215
615 854 616
616 379 769
617 418 899
618 128 124
619 46 207
620 466 816
621 890 559
622 688 555
623 826 582
624 127 126
625 879 499
626 401 805
627 384 826
628 320 775
629 204 336
630 866 515
631 801 544
632 117 139
633 852 498
634 397 949
635 405 865
636 724 356
637 414 830
638 131 31
639 318 200
640 946 468
641 1 157
642 542 729
643 245 352
644 539 905
645 827 317
646 376 836
647 878 519
648 212 724
649 876 516
650 96 124
651 939 557
652 504 915
653 380 841
654 149 149
655 804 494
656 330 999
657 104 67
658 283 883
659 877 601
660 866 497
661 138 48
662 814 455
663 970 535
664 450 898
665 220 93
666 208 26
667 317 96
668 921 488
669 903 248
670 95 80
671 849 498
672 816 494
673 52 141
674 180 59
675 69 98
676 199 69
677 884 460
678 879 525
679 57 102
680 978 705
681 929 486
682 152 106
683 691 634
684 456 977
685 391 789
686 442 872
687 754 759
688 854 615
689 820 450
690 326 986
691 71 69
692 315 718
693 377 938
694 44 74
695 290 921
696 899 478
697 24 197
698 438 957
699 142 147
700 437 837
701 742 549
702 288 844
703 792 425
704 413 913
705 447 938
706 849 496
707 262 65
708 840 466
709 533 687
710 810 536
711 213 160
712 860 414
713 884 459
714 4 153
715 447 930
716 140 44
717 521 878
718 575 779
719 442 900
720 877 579
721 893 487
722 73 13
723 394 886
724 511 949
725 474 772
726 812 425
727 684 471
728 458 971
729 132 137
730 797 351
731 401 904
732 132 115
733 386 268
734 856 456
735 953 616
736 382 794
737 548 895
738 861 525
739 372 780
740 967 425
741 534 912
742 52 157
743 396 888
744 82 60
745 856 523
746 12 90
747 8 208
748 303 67
749 497 721
750 454 984
751 120 69
752 831 458
753 786 524
754 40 111
755 347 868
756 377 932
757 296 934
758 896 547
759 884 450
760 812 534
761 926 500
762 380 921
763 423 888
764 797 512
765 848 444
766 716 514
767 412 903
768 871 532
769 402 885
770 870 564
771 826 512
772 529 867
773 451 999
774 852 522
775 406 859
776 51 110
777 919 577
778 824 407
779 411 883
780 794 483
781 46 105
782 274 236
783 430 972
784 854 533
785 336 959
786 813 702
787 210 304
788 460 867
789 315 915
790 454 857
791 905 380
792 831 580
793 399 106
794 97 106
795 805 499
796 904 561
797 420 930
798 876 448
799 102 164
800 74 112
801 139 43
802 370 995
803 849 441
804 405 938
805 57 100
806 78 81
807 170 77
808 959 379
809 347 913
810 845 478
811 316 803
812 115 74
813 538 906
814 939 530
815 405 891
816 235 819
817 982 463
818 817 482
819 463 971
820 847 370
821 200 145
822 769 970
823 712 624
824 910 566
825 867 531
826 352 966
827 490 865
828 451 831
829 97 85
830 408 920
831 869 485
832 341 453
833 10 127
834 1 25
835 918 775
836 277 884
837 847 483
838 884 435
839 745 448
840 118 13
841 222 755
842 695 341
843 25 18
844 380 843
845 949 466
846 436 877
847 912 446
848 405 857
849 824 490
850 486 866
851 568 430
852 935 513
853 821 687
854 367 814
855 33 97
856 411 722
PICKUP_AND_DELIVERY_SECTION
1 0 0 1000000000 0 0 0
2 0 0 1000000000 0 0.6011 0.3989
3 0 0 1000000000 0 0.6351 0.3649
4 0 0 1000000000 0 0.2147 0.7853
5 0 0 1000000000 0 0.7643 0.2357
6 0 0 1000000000 0 0.08889 0.9111
7 0 0 1000000000 0 0.7773 0.2227
8 0 0 1000000000 0 0.596 0.404
9 0 0 1000000000 0 0.3274 0.6726
10 0 0 1000000000 0 0.283 0.717
11 0 0 1000000000 0 0.5644 0.4356
12 0 0 1000000000 0 0.09249 0.9075
13 0 0 1000000000 0 0.8067 0.1933
14 0 0 1000000000 0 0.4834 0.5166
15 0 0 1000000000 0 0.6548 0.3452
16 0 0 1000000000 0 0.4319 0.5681
17 0 0 1000000000 0 0.2202 0.7798
18 0 0 1000000000 0 0.522 0.478
19 0 0 1000000000 0 0.1904 0.8096
20 0 0 1000000000 0 0.9859 0.01411
21 0 0 1000000000 0 0.1774 0.8226
22 0 0 1000000000 0 0.6335 0.3665
23 0 0 1000000000 0 0.7096 0.2904
24 0 0 1000000000 0 0.627 0.373
25 0 0 1000000000 0 0.9889 0.01106
26 0 0 1000000000 0 0.2261 0.7739
27 0 0 1000000000 0 0.7238 0.2762
28 0 0 1000000000 0 0.4457 0.5543
29 0 0 1000000000 0 0.8884 0.1116
30 0 0 1000000000 0 0.468 0.532
31 0 0 1000000000 0 0.5405 0.4595
32 0 0 1000000000 0 0.2838 0.7162
33 0 0 1000000000 0 0.4933 0.5067
34 0 0 1000000000 0 0.0675 0.9325
35 0 0 1000000000 0 0.1874 0.8126
36 0 0 1000000000 0 0.9986 0.00141
37 0 0 1000000000 0 0.3807 0.6193
38 0 0 1000000000 0 0.7261 0.2739
39 0 0 1000000000 0 0.1825 0.8175
40 0 0 1000000000 0 0.162 0.838
41 0 0 1000000000 0 0.4333 0.5667
42 0 0 1000000000 0 0.05094 0.9491
43 0 0 1000000000 0 0.3534 0.6466
44 0 0 1000000000 0 0.5 0.5
45 0 0 1000000000 0 0.2876 0.7124
46 0 0 1000000000 0 0.00601 0.994
47 0 0 1000000000 0 0.0378 0.9622
48 0 0 1000000000 0 0.247 0.753
49 0 0 1000000000 0 0.523 0.477
50 0 0 1000000000 0 0.1911 0.8089
51 0 0 1000000000 0 0.8945 0.1055
52 0 0 1000000000 0 0.1477 0.8523
53 0 0 1000000000 0 0.1214 0.8786
54 0 0 1000000000 0 0.2127 0.7873
55 0 0 1000000000 0 0.1405 0.8595
56 0 0 1000000000 0 0.03344 0.9666
57 0 0 1000000000 0 0.7898 0.2102
58 0 0 1000000000 0 0.8146 0.1854
59 0 0 1000000000 0 0.1252 0.8748
60 0 0 1000000000 0 0.636 0.364
61 0 0 1000000000 0 0.8401 0.1599
62 0 0 1000000000 0 0.8984 0.1016
63 0 0 1000000000 0 0.985 0.01496
64 0 0 1000000000 0 0.318 0.682
65 0 0 1000000000 0 0.7559 0.2441
66 0 0 1000000000 0 0.9269 0.07313
67 0 0 1000000000 0 0.01929 0.9807
68 0 0 1000000000 0 0.2746 0.7254
69 0 0 1000000000 0 0.75 0.25
70 0 0 1000000000 0 0.9517 0.04829
71 0 0 1000000000 0 0.8464 0.1536
72 0 0 1000000000 0 0.7743 0.2257
73 0 0 1000000000 0 0.4059 0.5941
74 0 0 1000000000 0 0.1175 0.8825
75 0 0 1000000000 0 0.09826 0.9017
76 0 0 1000000000 0 0.7056 0.2944
77 0 0 1000000000 0 0.6915 0.3085
78 0 0 1000000000 0 0.327 0.673
79 0 0 1000000000 0 0.1385 0.8615
80 0 0 1000000000 0 0.6809 0.3191
81 0 0 1000000000 0 0.6646 0.3354
82 0 0 1000000000 0 0.4893 0.5107
83 0 0 1000000000 0 0.8901 0.1099
84 0 0 1000000000 0 0.5738 0.4262
85 0 0 1000000000 0 0.3525 0.6475
86 0 0 1000000000 0 0.4701 0.5299
87 0 0 1000000000 0 0.2386 0.7614
88 0 0 1000000000 0 0.476 0.524
89 0 0 1000000000 0 0.865 0.135
90 0 0 1000000000 0 0.7071 0.2929
91 0 0 1000000000 0 0.9328 0.06723
92 0 0 1000000000 0 0.05632 0.9437
93 0 0 1000000000 0 0.2139 0.7861
94 0 0 1000000000 0 0.4274 0.5726
95 0 0 1000000000 0 0.5293 0.4707
96 0 0 1000000000 0 0.752 0.248
97 0 0 1000000000 0 0.385 0.615
98 0 0 1000000000 0 0.3639 0.6361
99 0 0 1000000000 0 0.06033 0.9397
100 0 0 1000000000 0 0.07059 0.9294
101 0 0 1000000000 0 0.9325 0.06752
102 0 0 1000000000 0 0.1583 0.8417
103 0 0 1000000000 0 0.243 0.757
104 0 0 1000000000 0 0.1331 0.8669
105 0 0 1000000000 0 0.3073 0.6927
106 0 0 1000000000 0 0.765 0.235
107 0 0 1000000000 0 0.4973 0.5027
108 0 0 1000000000 0 0.5207 0.4793
109 0 0 1000000000 0 0.3333 0.6667
110 0 0 1000000000 0 0.5264 0.4736
111 0 0 1000000000 0 0.4713 0.5288
112 0 0 1000000000 0 0.5088 0.4912
113 0 0 1000000000 0 0.9876 0.01237
114 0 0 1000000000 0 0.3184 0.6816
115 0 0 1000000000 0 0.3949 0.6051
116 0 0 1000000000 0 0.7023 0.2977
117 0 0 1000000000 0 0.09476 0.9052
118 0 0 1000000000 0 0.3618 0.6382
119 0 0 1000000000 0 0.6719 0.3281
120 0 0 1000000000 0 0.2367 0.7633
121 0 0 1000000000 0 0.7269 0.2731
122 0 0 1000000000 0 0.5861 0.4139
123 0 0 1000000000 0 0.1037 0.8963
124 0 0 1000000000 0 0.8062 0.1938
125 0 0 1000000000 0 0.5304 0.4696
126 0 0 1000000000 0 0.4968 0.5032
127 0 0 1000000000 0 0.8303 0.1697
128 0 0 1000000000 0 0.5128 0.4872
129 0 0 1000000000 0 0.607 0.393
130 0 0 1000000000 0 0.5611 0.4389
131 0 0 1000000000 0 0.653 0.347
132 0 0 1000000000 0 0.3452 0.6548
133 0 0 1000000000 0 0.4348 0.5652
134 0 0 1000000000 0 0.1298 0.8702
135 0 0 1000000000 0 0.1602 0.8398
136 0 0 1000000000 0 0.1276 0.8724
137 0 0 1000000000 0 0.517 0.483
138 0 0 1000000000 0 0.7072 0.2928
139 0 0 1000000000 0 0.6125 0.3875
140 0 0 1000000000 0 0.4225 0.5775
141 0 0 1000000000 0 0.0381 0.9619
142 0 0 1000000000 0 0.9631 0.03692
143 0 0 1000000000 0 0.7385 0.2615
144 0 0 1000000000 0 0.7257 0.2743
145 0 0 1000000000 0 0.6251 0.3749
146 0 0 1000000000 0 0.263 0.737
147 0 0 1000000000 0 0.7849 0.2151
148 0 0 1000000000 0 0.6057 0.3943
149 0 0 1000000000 0 0.9371 0.06294
150 0 0 1000000000 0 0.393 0.607
151 0 0 1000000000 0 0.1688 0.8312
152 0 0 1000000000 0 0.6009 0.3991
153 0 0 1000000000 0 0.7579 0.2421
154 0 0 1000000000 0 0.4795 0.5205
155 0 0 1000000000 0 1 0
156 0 0 1000000000 0 0.6443 0.3557
157 0 0 1000000000 0 0.9512 0.04878
158 0 0 1000000000 0 0.2674 0.7326
159 0 0 1000000000 0 0.3677 0.6323
160 0 0 1000000000 0 0.1383 0.8617
161 0 0 1000000000 0 0.3172 0.6828
162 0 0 1000000000 0 0.4921 0.5079
163 0 0 1000000000 0 0.95 0.05
164 0 0 1000000000 0 0.266 0.734
165 0 0 1000000000 0 0.6824 0.3176
166 0 0 1000000000 0 0.265 0.735
167 0 0 1000000000 0 0.608 0.392
168 0 0 1000000000 0 0.6092 0.3908
169 0 0 1000000000 0 0.4357 0.5643
170 0 0 1000000000 0 0.2427 0.7573
171 0 0 1000000000 0 0.79 0.21
172 0 0 1000000000 0 0.6345 0.3655
173 0 0 1000000000 0 0.3397 0.6603
174 0 0 1000000000 0 0.4592 0.5408
175 0 0 1000000000 0 0.4225 0.5775
176 0 0 1000000000 0 0.07365 0.9263
177 0 0 1000000000 0 0.07925 0.9208
178 0 0 1000000000 0 0.385 0.615
179 0 0 1000000000 0 0.794 0.206
180 0 0 1000000000 0 0.3158 0.6842
181 0 0 1000000000 0 0.0565 0.9435
182 0 0 1000000000 0 0.5766 0.4234
183 0 0 1000000000 0 0.5412 0.4588
184 0 0 1000000000 0 0.4293 0.5707
185 0 0 1000000000 0 0.6845 0.3155
186 0 0 1000000000 0 0.3211 0.6789
187 0 0 1000000000 0 0.01426 0.9857
188 0 0 1000000000 0 0.8768 0.1232
189 0 0 1000000000 0 0.9181 0.0819
190 0 0 1000000000 0 0.1163 0.8837
191 0 0 1000000000 0 0.01042 0.9896
192 0 0 1000000000 0 0.2257 0.7743
193 0 0 1000000000 0 0.831 0.169
194 0 0 1000000000 0 0.2964 0.7036
195 0 0 1000000000 0 0.5335 0.4665
196 0 0 1000000000 0 0.4214 0.5786
197 0 0 1000000000 0 0.02554 0.9745
198 0 0 1000000000 0 0.9816 0.01844
199 0 0 1000000000 0 0.7711 0.2289
200 0 0 1000000000 0 0.8699 0.1301
201 0 0 1000000000 0 0.303 0.697
202 0 0 1000000000 0 0.652 0.348
203 0 0 1000000000 0 0.3161 0.6839
204 0 0 1000000000 0 0.9578 0.04219
205 0 0 1000000000 0 0.9971 0.00294
206 0 0 1000000000 0 0.6719 0.3281
207 0 0 1000000000 0 0.6369 0.3631
208 0 0 1000000000 0 0.8038 0.1962
209 0 0 1000000000 0 0.2423 0.7577
210 0 0 1000000000 0 0.8656 0.1344
211 0 0 1000000000 0 0.9244 0.07558
212 0 0 1000000000 0 0.8194 0.1806
213 0 0 1000000000 0 0.2426 0.7574
214 0 0 1000000000 0 0.8598 0.1402
215 0 0 1000000000 0 0.8959 0.1041
216 0 0 1000000000 0 0.9224 0.07758
217 0 0 1000000000 0 0.5364 0.4636
218 0 0 1000000000 0 0.1376 0.8624
219 0 0 1000000000 0 0.8291 0.1709
220 0 0 1000000000 0 0.6685 0.3315
221 0 0 1000000000 0 0.02746 0.9725
222 0 0 1000000000 0 0.1096 0.8904
223 0 0 1000000000 0 0.1876 0.8124
224 0 0 1000000000 0 0.09937 0.9006
225 0 0 1000000000 0 0.9777 0.0223
226 0 0 1000000000 0 0.7568 0.2432
227 0 0 1000000000 0 0 1
228 0 0 1000000000 0 0.4958 0.5042
229 0 0 1000000000 0 0.7701 0.2299
230 0 0 1000000000 0 0.4011 0.5989
231 0 0 1000000000 0 0.7708 0.2292
232 0 0 1000000000 0 0.8807 0.1193
233 0 0 1000000000 0 0.1322 0.8678
234 0 0 1000000000 0 0.06748 0.9325
235 0 0 1000000000 0 0.8493 0.1507
236 0 0 1000000000 0 0.988 0.01195
237 0 0 1000000000 0 0.6083 0.3917
238 0 0 1000000000 0 0.2289 0.7711
239 0 0 1000000000 0 0.1552 0.8448
240 0 0 1000000000 0 0.07314 0.9269
241 0 0 1000000000 0 0.3226 0.6774
242 0 0 1000000000 0 0.8612 0.1388
243 0 0 1000000000 0 0.4284 0.5716
244 0 0 1000000000 0 0.5373 0.4627
245 0 0 1000000000 0 0.5842 0.4158
246 0 0 1000000000 0 0.375 0.625
247 0 0 1000000000 0 0.1215 0.8785
248 0 0 1000000000 0 0.5671 0.4329
249 0 0 1000000000 0 0.5006 0.4994
250 0 0 1000000000 0 0.5342 0.4658
251 0 0 1000000000 0 0.4716 0.5284
252 0 0 1000000000 0 0.7342 0.2658
253 0 0 1000000000 0 0.7066 0.2934
254 0 0 1000000000 0 0.6753 0.3247
255 0 0 1000000000 0 0.4875 0.5125
256 0 0 1000000000 0 0.00289 0.9971
257 0 0 1000000000 0 0.4583 0.5417
258 0 0 1000000000 0 0.6834 0.3166
259 0 0 1000000000 0 0.7805 0.2195
260 0 0 1000000000 0 0.81 0.19
261 0 0 1000000000 0 0.3986 0.6014
262 0 0 1000000000 0 0.6504 0.3496
263 0 0 1000000000 0 0.3543 0.6457
264 0 0 1000000000 0 0.154 0.846
265 0 0 1000000000 0 0.8039 0.1961
266 0 0 1000000000 0 0.1135 0.8865
267 0 0 1000000000 0 0.667 0.333
268 0 0 1000000000 0 0.8752 0.1248
269 0 0 1000000000 0 0.1137 0.8863
270 0 0 1000000000 0 0.2782 0.7218
271 0 0 1000000000 0 0.7903 0.2097
272 0 0 1000000000 0 0.4687 0.5313
273 0 0 1000000000 0 0.5079 0.4921
274 0 0 1000000000 0 0.2262 0.7738
275 0 0 1000000000 0 0.7576 0.2424
276 0 0 1000000000 0 0.9075 0.09251
277 0 0 1000000000 0 0.8927 0.1073
278 0 0 1000000000 0 0.5411 0.4589
279 0 0 1000000000 0 0.6885 0.3115
280 0 0 1000000000 0 0.513 0.487
281 0 0 1000000000 0 0.9499 0.05008
282 0 0 1000000000 0 0.8987 0.1013
283 0 0 1000000000 0 0.4199 0.5801
284 0 0 1000000000 0 0.5988 0.4012
285 0 0 1000000000 0 0.4398 0.5602
286 0 0 1000000000 0 0.7562 0.2438
287 0 0 1000000000 0 0.2853 0.7147
288 0 0 1000000000 0 0.1084 0.8916
289 0 0 1000000000 0 0.04334 0.9567
290 0 0 1000000000 0 0.06177 0.9382
291 0 0 1000000000 0 0.06113 0.9389
292 0 0 1000000000 0 0.3053 0.6947
293 0 0 1000000000 0 0.8427 0.1573
294 0 0 1000000000 0 0.3429 0.6571
295 0 0 1000000000 0 0.7702 0.2298
296 0 0 1000000000 0 0.4057 0.5943
297 0 0 1000000000 0 0.4736 0.5264
298 0 0 1000000000 0 0.6794 0.3206
299 0 0 1000000000 0 0.9819 0.01809
300 0 0 1000000000 0 0.2012 0.7988
301 0 0 1000000000 0 0.197 0.803
302 0 0 1000000000 0 0.4977 0.5023
303 0 0 1000000000 0 0.2081 0.7919
304 0 0 1000000000 0 0.4978 0.5022
305 0 0 1000000000 0 0.2195 0.7805
306 0 0 1000000000 0 0.4948 0.5052
307 0 0 1000000000 0 0.6262 0.3738
308 0 0 1000000000 0 0.6005 0.3995
309 0 0 1000000000 0 0.7434 0.2566
310 0 0 1000000000 0 0.1879 0.8121
311 0 0 1000000000 0 0.2646 0.7354
312 0 0 1000000000 0 0.00247 0.9975
313 0 0 1000000000 0 0.00529 0.9947
314 0 0 1000000000 0 0.718 0.282
315 0 0 1000000000 0 0.7981 0.2019
316 0 0 1000000000 0 0.7379 0.2621
317 0 0 1000000000 0 0.03093 0.9691
318 0 0 1000000000 0 0.1096 0.8904
319 0 0 1000000000 0 0.5259 0.4741
320 0 0 1000000000 0 0.3181 0.6819
321 0 0 1000000000 0 0.6992 0.3008
322 0 0 1000000000 0 0.2423 0.7577
323 0 0 1000000000 0 0.2313 0.7687
324 0 0 1000000000 0 0.628 0.372
325 0 0 1000000000 0 0.8323 0.1677
326 0 0 1000000000 0 0.7577 0.2423
327 0 0 1000000000 0 0.669 0.331
328 0 0 1000000000 0 0.04319 0.9568
329 0 0 1000000000 0 0.3965 0.6035
330 0 0 1000000000 0 0.8561 0.1439
331 0 0 1000000000 0 0.8623 0.1377
332 0 0 1000000000 0 0.1209 0.8791
333 0 0 1000000000 0 0.9743 0.02567
334 0 0 1000000000 0 0.4675 0.5325
335 0 0 1000000000 0 0.2131 0.7869
336 0 0 1000000000 0 0.08078 0.9192
337 0 0 1000000000 0 0.5889 0.4111
338 0 0 1000000000 0 0.7236 0.2764
339 0 0 1000000000 0 0.5987 0.4013
340 0 0 1000000000 0 0.6518 0.3482
341 0 0 1000000000 0 0.3042 0.6958
342 0 0 1000000000 0 0.05753 0.9425
343 0 0 1000000000 0 0.7629 0.2371
344 0 0 1000000000 0 0.2535 0.7465
345 0 0 1000000000 0 0.3363 0.6637
346 0 0 1000000000 0 0.5775 0.4225
347 0 0 1000000000 0 0.9554 0.04457
348 0 0 1000000000 0 0.9704 0.0296
349 0 0 1000000000 0 0.2328 0.7672
350 0 0 1000000000 0 0.7185 0.2815
351 0 0 1000000000 0 0.4351 0.5649
352 0 0 1000000000 0 0.4706 0.5294
353 0 0 1000000000 0 0.06711 0.9329
354 0 0 1000000000 0 0.6531 0.3469
355 0 0 1000000000 0 0.7554 0.2446
356 0 0 1000000000 0 0.01667 0.9833
357 0 0 1000000000 0 0.8912 0.1088
358 0 0 1000000000 0 0.9307 0.06927
359 0 0 1000000000 0 0.984 0.016
360 0 0 1000000000 0 0.8642 0.1358
361 0 0 1000000000 0 0.2125 0.7875
362 0 0 1000000000 0 0.4619 0.5381
363 0 0 1000000000 0 0.2813 0.7187
364 0 0 1000000000 0 0.9124 0.08757
365 0 0 1000000000 0 0.433 0.567
366 0 0 1000000000 0 0.9331 0.06692
367 0 0 1000000000 0 0.8153 0.1847
368 0 0 1000000000 0 0.9062 0.09379
369 0 0 1000000000 0 0.1481 0.8519
370 0 0 1000000000 0 0.5787 0.4213
371 0 0 1000000000 0 0.5244 0.4756
372 0 0 1000000000 0 0.03866 0.9613
373 0 0 1000000000 0 0.3635 0.6365
374 0 0 1000000000 0 0.01464 0.9854
375 0 0 1000000000 0 0.3895 0.6105
376 0 0 1000000000 0 0.447 0.553
377 0 0 1000000000 0 0.5049 0.4951
378 0 0 1000000000 0 0.2048 0.7952
379 0 0 1000000000 0 0.08343 0.9166
380 0 0 1000000000 0 0.8207 0.1793
381 0 0 1000000000 0 0.2133 0.7867
382 0 0 1000000000 0 0.5846 0.4154
383 0 0 1000000000 0 0.5282 0.4718
384 0 0 1000000000 0 0.0206 0.9794
385 0 0 1000000000 0 0.6399 0.3601
386 0 0 1000000000 0 0.5882 0.4118
387 0 0 1000000000 0 0.05068 0.9493
388 0 0 1000000000 0 0.2904 0.7096
389 0 0 1000000000 0 0.6194 0.3806
390 0 0 1000000000 0 0.1798 0.8202
391 0 0 1000000000 0 0.3386 0.6614
392 0 0 1000000000 0 0.9131 0.08689
393 0 0 1000000000 0 0.1841 0.8159
394 0 0 1000000000 0 0.4358 0.5642
395 0 0 1000000000 0 0.465 0.535
396 0 0 1000000000 0 0.5 0.5
397 0 0 1000000000 0 0.6254 0.3746
398 0 0 1000000000 0 0.5915 0.4085
399 0 0 1000000000 0 0.8399 0.1601
400 0 0 1000000000 0 0.07143 0.9286
401 0 0 1000000000 0 0.3089 0.6911
402 0 0 1000000000 0 0.2489 0.7511
403 0 0 1000000000 0 0.07701 0.923
404 0 0 1000000000 0 0.2746 0.7254
405 0 0 1000000000 0 0.3257 0.6743
406 0 0 1000000000 0 0.8451 0.1549
407 0 0 1000000000 0 0.816 0.184
408 0 0 1000000000 0 0.9214 0.07857
409 0 0 1000000000 0 0.3975 0.6025
410 0 0 1000000000 0 0.9675 0.03249
411 0 0 1000000000 0 0.1765 0.8235
412 0 0 1000000000 0 0.3682 0.6318
413 0 0 1000000000 0 0.6624 0.3376
414 0 0 1000000000 0 0.2201 0.7799
415 0 0 1000000000 0 0.5809 0.4191
416 0 0 1000000000 0 0.06995 0.93
417 0 0 1000000000 0 0.6769 0.3231
418 0 0 1000000000 0 0.8349 0.1651
419 0 0 1000000000 0 0.3256 0.6744
420 0 0 1000000000 0 0.2711 0.7289
421 0 0 1000000000 0 0.7086 0.2914
422 0 0 1000000000 0 0.5662 0.4338
423 0 0 1000000000 0 0.2976 0.7024
424 0 0 1000000000 0 0.07251 0.9275
425 0 0 1000000000 0 0.8633 0.1367
426 0 0 1000000000 0 0.3253 0.6747
427 0 0 1000000000 0 0.6983 0.3017
428 0 0 1000000000 0 0.2423 0.7577
429 0 0 1000000000 0 0.9273 0.07273
430 0 0 1000000000 0 0.5693 0.4307
431 0 0 1000000000 0 0.4556 0.5444
432 0 0 1000000000 0 0.7599 0.2401
433 0 0 1000000000 0 0.1081 0.8919
434 0 0 1000000000 0 0.3824 0.6176
435 0 0 1000000000 0 0.559 0.441
436 0 0 1000000000 0 0.6943 0.3057
437 0 0 1000000000 0 0.7117 0.2883
438 0 0 1000000000 0 0.5661 0.4339
439 0 0 1000000000 0 0.2421 0.7579
440 0 0 1000000000 0 0.545 0.455
441 0 0 1000000000 0 0.3725 0.6275
442 0 0 1000000000 0 0.5597 0.4403
443 0 0 1000000000 0 0.6875 0.3125
444 0 0 1000000000 0 0.5667 0.4333
445 0 0 1000000000 0 0.5896 0.4104
446 0 0 1000000000 0 0.4841 0.5159
447 0 0 1000000000 0 0.5011 0.4989
448 0 0 1000000000 0 0.7083 0.2917
449 0 0 1000000000 0 0.7266 0.2734
450 0 0 1000000000 0 0.3884 0.6116
451 0 0 1000000000 0 0.5627 0.4373
452 0 0 1000000000 0 0.3822 0.6178
453 0 0 1000000000 0 0.6224 0.3776
454 0 0 1000000000 0 0.2404 0.7596
455 0 0 1000000000 0 0.4057 0.5943
456 0 0 1000000000 0 0.5435 0.4565
457 0 0 1000000000 0 0.4906 0.5094
458 0 0 1000000000 0 0.7609 0.2391
459 0 0 1000000000 0 0.5191 0.4809
460 0 0 1000000000 0 0.6552 0.3448
461 0 0 1000000000 0 0.5682 0.4318
462 0 0 1000000000 0 0.9318 0.06818
463 0 0 1000000000 0 0.5015 0.4985
464 0 0 1000000000 0 0.6481 0.3519
465 0 0 1000000000 0 0.5413 0.4587
466 0 0 1000000000 0 0.04624 0.9538
467 0 0 1000000000 0 0.9146 0.08543
468 0 0 1000000000 0 0.6318 0.3682
469 0 0 1000000000 0 0.3479 0.6521
470 0 0 1000000000 0 0.6768 0.3232
471 0 0 1000000000 0 0.49 0.51
472 0 0 1000000000 0 0.4743 0.5257
473 0 0 1000000000 0 0.6774 0.3226
474 0 0 1000000000 0 0.3497 0.6503
475 0 0 1000000000 0 0.459 0.541
476 0 0 1000000000 0 0.5639 0.4361
477 0 0 1000000000 0 0.7255 0.2745
478 0 0 1000000000 0 0.5569 0.4431
479 0 0 1000000000 0 0.5104 0.4896
480 0 0 1000000000 0 0.9765 0.02353
481 0 0 1000000000 0 0.6133 0.3867
482 0 0 1000000000 0 0.637 0.363
483 0 0 1000000000 0 0.5321 0.4679
484 0 0 1000000000 0 0.7556 0.2444
485 0 0 1000000000 0 0.5184 0.4816
486 0 0 1000000000 0 0.4356 0.5644
487 0 0 1000000000 0 0.546 0.454
488 0 0 1000000000 0 0.563 0.437
489 0 0 1000000000 0 0.6178 0.3822
490 0 0 1000000000 0 0.4 0.6
491 0 0 1000000000 0 0.1558 0.8442
492 0 0 1000000000 0 0.4783 0.5217
493 0 0 1000000000 0 0.5984 0.4016
494 0 0 1000000000 0 0.404 0.596
495 0 0 1000000000 0 0.64 0.36
496 0 0 1000000000 0 0.5463 0.4537
497 0 0 1000000000 0 0.01049 0.9895
498 0 0 1000000000 0 0.03405 0.9659
499 0 0 1000000000 0 0.2619 0.7381
500 0 0 1000000000 0 0.4984 0.5016
501 0 0 1000000000 0 0.4686 0.5314
502 0 0 1000000000 0 0.4675 0.5325
503 0 0 1000000000 0 0.5212 0.4788
504 0 0 1000000000 0 0.5418 0.4582
505 0 0 1000000000 0 0.5694 0.4306
506 0 0 1000000000 0 0.6017 0.3983
507 0 0 1000000000 0 0.588 0.412
508 0 0 1000000000 0 0.1708 0.8292
509 0 0 1000000000 0 0.4623 0.5377
510 0 0 1000000000 0 0.5155 0.4845
511 0 0 1000000000 0 0.7099 0.2901
512 0 0 1000000000 0 0.6827 0.3173
513 0 0 1000000000 0 0.5 0.5
514 0 0 1000000000 0 0.5393 0.4607
515 0 0 1000000000 0 0.7056 0.2944
516 0 0 1000000000 0 0.959 0.04098
517 0 0 1000000000 0 0.3516 0.6484
518 0 0 1000000000 0 0.4738 0.5262
519 0 0 1000000000 0 0.4191 0.5809
520 0 0 1000000000 0 0.5053 0.4947
521 0 0 1000000000 0 0.6134 0.3866
522 0 0 1000000000 0 0.5661 0.4339
523 0 0 1000000000 0 0.54 0.46
524 0 0 1000000000 0 0.9444 0.05556
525 0 0 1000000000 0 0.5487 0.4513
526 0 0 1000000000 0 0.5437 0.4563
527 0 0 1000000000 0 0.6891 0.3109
528 0 0 1000000000 0 0.5628 0.4372
529 0 0 1000000000 0 0.4876 0.5124
530 0 0 1000000000 0 0.5248 0.4752
531 0 0 1000000000 0 0.4622 0.5378
532 0 0 1000000000 0 0.4551 0.5449
533 0 0 1000000000 0 0.8071 0.1929
534 0 0 1000000000 0 0.2564 0.7436
535 0 0 1000000000 0 0.3931 0.6069
536 0 0 1000000000 0 0.1513 0.8487
537 0 0 1000000000 0 0.4563 0.5437
538 0 0 1000000000 0 0.4512 0.5488
539 0 0 1000000000 0 0.8485 0.1515
540 0 0 1000000000 0 0.3664 0.6336
541 0 0 1000000000 0 0.5172 0.4828
542 0 0 1000000000 0 0.5972 0.4028
543 0 0 1000000000 0 0.4481 0.5519
544 0 0 1000000000 0 0.448 0.552
545 0 0 1000000000 0 0.5557 0.4443
546 0 0 1000000000 0 0.4547 0.5453
547 0 0 1000000000 0 0.7537 0.2463
548 0 0 1000000000 0 0.64 0.36
549 0 0 1000000000 0 0.5104 0.4896
550 0 0 1000000000 0 0.1771 0.8229
551 0 0 1000000000 0 0.4413 0.5587
552 0 0 1000000000 0 0.4627 0.5373
553 0 0 1000000000 0 0.7045 0.2955
554 0 0 1000000000 0 0.7246 0.2754
555 0 0 1000000000 0 0.5194 0.4806
556 0 0 1000000000 0 0.324 0.676
557 0 0 1000000000 0 0.7308 0.2692
558 0 0 1000000000 0 0.6937 0.3063
559 0 0 1000000000 0 0.5336 0.4664
560 0 0 1000000000 0 0.5218 0.4782
561 0 0 1000000000 0 0.457 0.543
562 0 0 1000000000 0 0.725 0.275
563 0 0 1000000000 0 0.6983 0.3017
564 0 0 1000000000 0 0.4624 0.5376
565 0 0 1000000000 0 0.5315 0.4685
566 0 0 1000000000 0 0.6754 0.3246
567 0 0 1000000000 0 0.5963 0.4037
568 0 0 1000000000 0 0.3316 0.6684
569 0 0 1000000000 0 0.5253 0.4747
570 0 0 1000000000 0 0.7375 0.2625
571 0 0 1000000000 0 0.09596 0.904
572 0 0 1000000000 0 0.4697 0.5303
573 0 0 1000000000 0 0.4216 0.5784
574 0 0 1000000000 0 0.0625 0.9375
575 0 0 1000000000 0 0.9091 0.09091
576 0 0 1000000000 0 0.5035 0.4965
577 0 0 1000000000 0 0.555 0.445
578 0 0 1000000000 0 0.2874 0.7126
579 0 0 1000000000 0 0.5103 0.4897
580 0 0 1000000000 0 0.5181 0.4819
581 0 0 1000000000 0 0.6343 0.3657
582 0 0 1000000000 0 0.5835 0.4165
583 0 0 1000000000 0 0.01786 0.9821
584 0 0 1000000000 0 0.9479 0.05208
585 0 0 1000000000 0 0.6012 0.3988
586 0 0 1000000000 0 0.5422 0.4578
587 0 0 1000000000 0 0.4351 0.5649
588 0 0 1000000000 0 0.644 0.356
589 0 0 1000000000 0 0.1683 0.8317
590 0 0 1000000000 0 0.4924 0.5076
591 0 0 1000000000 0 0.5481 0.4519
592 0 0 1000000000 0 0.6136 0.3864
593 0 0 1000000000 0 0.5622 0.4378
594 0 0 1000000000 0 0.2468 0.7532
595 0 0 1000000000 0 0.3094 0.6906
596 0 0 1000000000 0 0.2551 0.7449
597 0 0 1000000000 0 0.4697 0.5303
598 0 0 1000000000 0 0.3001 0.6999
599 0 0 1000000000 0 0.9074 0.09259
600 0 0 1000000000 0 0.4328 0.5672
601 0 0 1000000000 0 0.4667 0.5333
602 0 0 1000000000 0 0.51 0.49
603 0 0 1000000000 0 0.4259 0.5741
604 0 0 1000000000 0 0.6883 0.3117
605 0 0 1000000000 0 0.4393 0.5607
606 0 0 1000000000 0 0.5672 0.4328
607 0 0 1000000000 0 0.3769 0.6231
608 0 0 1000000000 0 0.45 0.55
609 0 0 1000000000 0 0.5714 0.4286
610 0 0 1000000000 0 0.4212 0.5788
611 0 0 1000000000 0 0.5855 0.4145
612 0 0 1000000000 0 0.5299 0.4701
613 0 0 1000000000 0 0.5557 0.4443
614 0 0 1000000000 0 0.7734 0.2266
615 0 0 1000000000 0 0.7213 0.2787
616 0 0 1000000000 0 0.4928 0.5072
617 0 0 1000000000 0 0.465 0.535
618 0 0 1000000000 0 0.9688 0.03125
619 0 0 1000000000 0 0.2222 0.7778
620 0 0 1000000000 0 0.5711 0.4289
621 0 0 1000000000 0 0.6281 0.3719
622 0 0 1000000000 0 0.8067 0.1933
623 0 0 1000000000 0 0.7046 0.2954
624 0 0 1000000000 0 0.9921 0.00787
625 0 0 1000000000 0 0.5677 0.4323
626 0 0 1000000000 0 0.4981 0.5019
627 0 0 1000000000 0 0.4649 0.5351
628 0 0 1000000000 0 0.4129 0.5871
629 0 0 1000000000 0 0.6071 0.3929
630 0 0 1000000000 0 0.5947 0.4053
631 0 0 1000000000 0 0.6792 0.3208
632 0 0 1000000000 0 0.8417 0.1583
633 0 0 1000000000 0 0.5845 0.4155
634 0 0 1000000000 0 0.4183 0.5817
635 0 0 1000000000 0 0.4682 0.5318
636 0 0 1000000000 0 0.4917 0.5083
637 0 0 1000000000 0 0.4988 0.5012
638 0 0 1000000000 0 0.2366 0.7634
639 0 0 1000000000 0 0.6289 0.3711
640 0 0 1000000000 0 0.4947 0.5053
641 0 0 1000000000 0 0.00637 0.9936
642 0 0 1000000000 0 0.7435 0.2565
643 0 0 1000000000 0 0.696 0.304
644 0 0 1000000000 0 0.5956 0.4044
645 0 0 1000000000 0 0.3833 0.6167
646 0 0 1000000000 0 0.4498 0.5502
647 0 0 1000000000 0 0.5911 0.4089
648 0 0 1000000000 0 0.2928 0.7072
649 0 0 1000000000 0 0.589 0.411
650 0 0 1000000000 0 0.7742 0.2258
651 0 0 1000000000 0 0.5932 0.4068
652 0 0 1000000000 0 0.5508 0.4492
653 0 0 1000000000 0 0.4518 0.5482
654 0 0 1000000000 0 1 0
655 0 0 1000000000 0 0.6144 0.3856
656 0 0 1000000000 0 0.3303 0.6697
657 0 0 1000000000 0 0.6442 0.3558
658 0 0 1000000000 0 0.3205 0.6795
659 0 0 1000000000 0 0.6853 0.3147
660 0 0 1000000000 0 0.5739 0.4261
661 0 0 1000000000 0 0.3478 0.6522
662 0 0 1000000000 0 0.559 0.441
663 0 0 1000000000 0 0.5515 0.4485
664 0 0 1000000000 0 0.5011 0.4989
665 0 0 1000000000 0 0.4227 0.5773
666 0 0 1000000000 0 0.125 0.875
667 0 0 1000000000 0 0.3028 0.6972
668 0 0 1000000000 0 0.5299 0.4701
669 0 0 1000000000 0 0.2746 0.7254
670 0 0 1000000000 0 0.8421 0.1579
671 0 0 1000000000 0 0.5866 0.4134
672 0 0 1000000000 0 0.6054 0.3946
673 0 0 1000000000 0 0.3688 0.6312
674 0 0 1000000000 0 0.3278 0.6722
675 0 0 1000000000 0 0.7041 0.2959
676 0 0 1000000000 0 0.3467 0.6533
677 0 0 1000000000 0 0.5204 0.4796
678 0 0 1000000000 0 0.5973 0.4027
679 0 0 1000000000 0 0.5588 0.4412
680 0 0 1000000000 0 0.7209 0.2791
681 0 0 1000000000 0 0.5231 0.4769
682 0 0 1000000000 0 0.6974 0.3026
683 0 0 1000000000 0 0.9175 0.08249
684 0 0 1000000000 0 0.4667 0.5333
685 0 0 1000000000 0 0.4956 0.5044
686 0 0 1000000000 0 0.5069 0.4931
687 0 0 1000000000 0 0.9934 0.00659
688 0 0 1000000000 0 0.7201 0.2799
689 0 0 1000000000 0 0.5488 0.4512
690 0 0 1000000000 0 0.3306 0.6694
691 0 0 1000000000 0 0.9718 0.02817
692 0 0 1000000000 0 0.4387 0.5613
693 0 0 1000000000 0 0.4019 0.5981
694 0 0 1000000000 0 0.5946 0.4054
695 0 0 1000000000 0 0.3149 0.6851
696 0 0 1000000000 0 0.5317 0.4683
697 0 0 1000000000 0 0.1218 0.8782
698 0 0 1000000000 0 0.4577 0.5423
699 0 0 1000000000 0 0.966 0.03401
700 0 0 1000000000 0 0.5221 0.4779
701 0 0 1000000000 0 0.7399 0.2601
702 0 0 1000000000 0 0.3412 0.6588
703 0 0 1000000000 0 0.5366 0.4634
704 0 0 1000000000 0 0.4524 0.5476
705 0 0 1000000000 0 0.4765 0.5235
706 0 0 1000000000 0 0.5842 0.4158
707 0 0 1000000000 0 0.2481 0.7519
708 0 0 1000000000 0 0.5548 0.4452
709 0 0 1000000000 0 0.7758 0.2242
710 0 0 1000000000 0 0.6617 0.3383
711 0 0 1000000000 0 0.7512 0.2488
712 0 0 1000000000 0 0.4814 0.5186
713 0 0 1000000000 0 0.5192 0.4808
714 0 0 1000000000 0 0.02614 0.9739
715 0 0 1000000000 0 0.4806 0.5194
716 0 0 1000000000 0 0.3143 0.6857
717 0 0 1000000000 0 0.5934 0.4066
718 0 0 1000000000 0 0.7381 0.2619
719 0 0 1000000000 0 0.4911 0.5089
720 0 0 1000000000 0 0.6602 0.3398
721 0 0 1000000000 0 0.5454 0.4546
722 0 0 1000000000 0 0.1781 0.8219
723 0 0 1000000000 0 0.4447 0.5553
724 0 0 1000000000 0 0.5385 0.4615
725 0 0 1000000000 0 0.614 0.386
726 0 0 1000000000 0 0.5234 0.4766
727 0 0 1000000000 0 0.6886 0.3114
728 0 0 1000000000 0 0.4717 0.5283
729 0 0 1000000000 0 0.9635 0.0365
730 0 0 1000000000 0 0.4404 0.5596
731 0 0 1000000000 0 0.4436 0.5564
732 0 0 1000000000 0 0.8712 0.1288
733 0 0 1000000000 0 0.6943 0.3057
734 0 0 1000000000 0 0.5327 0.4673
735 0 0 1000000000 0 0.6464 0.3536
736 0 0 1000000000 0 0.4811 0.5189
737 0 0 1000000000 0 0.6123 0.3877
738 0 0 1000000000 0 0.6098 0.3902
739 0 0 1000000000 0 0.4769 0.5231
740 0 0 1000000000 0 0.4395 0.5605
741 0 0 1000000000 0 0.5855 0.4145
742 0 0 1000000000 0 0.3312 0.6688
743 0 0 1000000000 0 0.4459 0.5541
744 0 0 1000000000 0 0.7317 0.2683
745 0 0 1000000000 0 0.611 0.389
746 0 0 1000000000 0 0.1333 0.8667
747 0 0 1000000000 0 0.03846 0.9615
748 0 0 1000000000 0 0.2211 0.7789
749 0 0 1000000000 0 0.6893 0.3107
750 0 0 1000000000 0 0.4614 0.5386
751 0 0 1000000000 0 0.575 0.425
752 0 0 1000000000 0 0.5511 0.4489
753 0 0 1000000000 0 0.6667 0.3333
754 0 0 1000000000 0 0.3604 0.6396
755 0 0 1000000000 0 0.3998 0.6002
756 0 0 1000000000 0 0.4045 0.5955
757 0 0 1000000000 0 0.3169 0.6831
758 0 0 1000000000 0 0.6105 0.3895
759 0 0 1000000000 0 0.509 0.491
760 0 0 1000000000 0 0.6576 0.3424
761 0 0 1000000000 0 0.54 0.46
762 0 0 1000000000 0 0.4126 0.5874
763 0 0 1000000000 0 0.4764 0.5236
764 0 0 1000000000 0 0.6424 0.3576
765 0 0 1000000000 0 0.5236 0.4764
766 0 0 1000000000 0 0.7179 0.2821
767 0 0 1000000000 0 0.4563 0.5437
768 0 0 1000000000 0 0.6108 0.3892
769 0 0 1000000000 0 0.4542 0.5458
770 0 0 1000000000 0 0.6483 0.3517
771 0 0 1000000000 0 0.6199 0.3801
772 0 0 1000000000 0 0.6101 0.3899
773 0 0 1000000000 0 0.4515 0.5485
774 0 0 1000000000 0 0.6127 0.3873
775 0 0 1000000000 0 0.4726 0.5274
776 0 0 1000000000 0 0.4636 0.5364
777 0 0 1000000000 0 0.6279 0.3721
778 0 0 1000000000 0 0.4939 0.5061
779 0 0 1000000000 0 0.4655 0.5345
780 0 0 1000000000 0 0.6083 0.3917
781 0 0 1000000000 0 0.4381 0.5619
782 0 0 1000000000 0 0.8613 0.1387
783 0 0 1000000000 0 0.4424 0.5576
784 0 0 1000000000 0 0.6241 0.3759
785 0 0 1000000000 0 0.3504 0.6496
786 0 0 1000000000 0 0.8635 0.1365
787 0 0 1000000000 0 0.6908 0.3092
788 0 0 1000000000 0 0.5306 0.4694
789 0 0 1000000000 0 0.3443 0.6557
790 0 0 1000000000 0 0.5298 0.4702
791 0 0 1000000000 0 0.4199 0.5801
792 0 0 1000000000 0 0.698 0.302
793 0 0 1000000000 0 0.2657 0.7343
794 0 0 1000000000 0 0.9151 0.08491
795 0 0 1000000000 0 0.6199 0.3801
796 0 0 1000000000 0 0.6206 0.3794
797 0 0 1000000000 0 0.4516 0.5484
798 0 0 1000000000 0 0.5114 0.4886
799 0 0 1000000000 0 0.622 0.378
800 0 0 1000000000 0 0.6607 0.3393
801 0 0 1000000000 0 0.3094 0.6906
802 0 0 1000000000 0 0.3719 0.6281
803 0 0 1000000000 0 0.5194 0.4806
804 0 0 1000000000 0 0.4318 0.5682
805 0 0 1000000000 0 0.57 0.43
806 0 0 1000000000 0 0.963 0.03704
807 0 0 1000000000 0 0.4529 0.5471
808 0 0 1000000000 0 0.3952 0.6048
809 0 0 1000000000 0 0.3801 0.6199
810 0 0 1000000000 0 0.5657 0.4343
811 0 0 1000000000 0 0.3935 0.6065
812 0 0 1000000000 0 0.6435 0.3565
813 0 0 1000000000 0 0.5938 0.4062
814 0 0 1000000000 0 0.5644 0.4356
815 0 0 1000000000 0 0.4545 0.5455
816 0 0 1000000000 0 0.2869 0.7131
817 0 0 1000000000 0 0.4715 0.5285
818 0 0 1000000000 0 0.59 0.41
819 0 0 1000000000 0 0.4768 0.5232
820 0 0 1000000000 0 0.4368 0.5632
821 0 0 1000000000 0 0.725 0.275
822 0 0 1000000000 0 0.7928 0.2072
823 0 0 1000000000 0 0.8764 0.1236
824 0 0 1000000000 0 0.622 0.378
825 0 0 1000000000 0 0.6125 0.3875
826 0 0 1000000000 0 0.3644 0.6356
827 0 0 1000000000 0 0.5665 0.4335
828 0 0 1000000000 0 0.5427 0.4573
829 0 0 1000000000 0 0.8763 0.1237
830 0 0 1000000000 0 0.4435 0.5565
831 0 0 1000000000 0 0.5581 0.4419
832 0 0 1000000000 0 0.7528 0.2472
833 0 0 1000000000 0 0.07874 0.9213
834 0 0 1000000000 0 0.04 0.96
835 0 0 1000000000 0 0.8442 0.1558
836 0 0 1000000000 0 0.3133 0.6867
837 0 0 1000000000 0 0.5702 0.4298
838 0 0 1000000000 0 0.4921 0.5079
839 0 0 1000000000 0 0.6013 0.3987
840 0 0 1000000000 0 0.1102 0.8898
841 0 0 1000000000 0 0.294 0.706
842 0 0 1000000000 0 0.4906 0.5094
843 0 0 1000000000 0 0.72 0.28
844 0 0 1000000000 0 0.4508 0.5492
845 0 0 1000000000 0 0.491 0.509
846 0 0 1000000000 0 0.4971 0.5029
847 0 0 1000000000 0 0.489 0.511
848 0 0 1000000000 0 0.4726 0.5274
849 0 0 1000000000 0 0.5947 0.4053
850 0 0 1000000000 0 0.5612 0.4388
851 0 0 1000000000 0 0.757 0.243
852 0 0 1000000000 0 0.5487 0.4513
853 0 0 1000000000 0 0.8368 0.1632
854 0 0 1000000000 0 0.4509 0.5491
855 0 0 1000000000 0 0.3402 0.6598
856 0 0 1000000000 0 0.5693 0.4307
